31405
68,144,268,468,621,883,1045,1319,1328,1471,1495,1504,1569,1587,1660,1713,1820,1850,1862,1923,1967,1983,1986,2003,2286,2345,2366,2393,2421,2551,2623,2722,2800,2806,2814,2821,2852,2937,3064,3208,3230,3237,3420,3535,3575,3589,3710,3746,3793,3808,3925,3999,4006,4094,4107,4156,4230,4307,4510,4574,4689,4741,4764,4879,4885,4953
